p cnf 44 151
2 -3 -4 0
-2 3 -4 0
2 3 4 0
-2 -3 4 0
-5 1 0
-5 -4 0
-1 4 5 0
-8 -6 0
-8 -7 0
6 7 8 0
9 4 0
9 8 0
-4 -8 -9 0
10 6 -11 0
-10 -6 -11 0
10 -6 11 0
-10 6 11 0
12 -7 0
12 -11 0
7 11 -12 0
9 12 -13 0
-9 -12 -13 0
9 -12 13 0
-9 12 13 0
14 10 -15 0
-14 -10 -15 0
14 -10 15 0
-14 10 15 0
-15 -16 -17 0
15 16 -17 0
-15 16 17 0
15 -16 17 0
-18 -13 0
-18 -17 0
13 17 18 0
5 18 -19 0
-5 -18 -19 0
5 -18 19 0
-5 18 19 0
-11 -16 -20 0
11 16 -20 0
-11 16 20 0
11 -16 20 0
22 21 0
22 14 0
-21 -14 -22 0
23 21 -24 0
-23 -21 -24 0
23 -21 24 0
-23 21 24 0
25 24 0
25 -14 0
-24 14 -25 0
-26 22 0
-26 -25 0
-22 25 26 0
27 20 0
27 26 0
-20 -26 -27 0
28 24 0
28 -2 0
-24 2 -28 0
29 -28 0
29 -10 0
28 10 -29 0
-30 -2 0
-30 24 0
2 -24 30 0
31 -4 0
31 -21 0
4 21 -31 0
30 31 -32 0
-30 -31 -32 0
30 -31 32 0
-30 31 32 0
33 29 0
33 32 0
-29 -32 -33 0
34 -14 0
34 25 0
14 -25 -34 0
-34 23 -35 0
34 -23 -35 0
-34 -23 35 0
34 23 35 0
-36 -33 0
-36 -35 0
33 35 36 0
27 -36 -37 0
-27 36 -37 0
27 36 37 0
-27 -36 37 0
38 19 0
38 37 0
-19 -37 -38 0
-39 2 0
-39 -34 0
-2 34 39 0
2 -24 -40 0
-2 24 -40 0
2 24 40 0
-2 -24 40 0
41 -39 0
41 -40 0
39 40 -41 0
42 38 0
42 -41 0
-38 41 -42 0
16 8 -43 0
-16 -8 -43 0
16 -8 43 0
-16 8 43 0
44 42 0
44 -43 0
-42 43 -44 0
27 -6 -42 30 14 0
23 -27 -16 -35 42 28 0
-41 12 -40 -11 0
-26 44 -34 -36 0
-24 38 -32 0
-23 25 -8 0
-22 6 0
25 16 5 0
-24 -32 -4 -30 0
-37 17 -29 -5 -28 0
20 43 34 0
-39 22 34 33 40 37 0
1 27 15 -21 -14 0
-37 -40 -11 0
-25 13 43 -8 -41 0
-41 29 28 0
17 -33 0
27 -42 23 -15 1 -30 0
37 -5 40 15 0
40 14 -38 32 36 2 0
6 36 11 -41 -21 0
-24 -37 13 32 0
17 41 -10 -29 -6 0
14 2 0
22 29 40 18 -37 -15 0
33 40 0
-34 -21 22 44 0
-1 -7 36 -40 0
-5 15 12 27 0
-36 11 0
44 -33 0
-20 19 -29 28 27 -30 0
20 -7 23 -4 31 21 0
26 -31 38 -11 -2 0
-22 42 -10 -35 6 33 0
44 0
